(declare-fun ExpandObjSwitcher () Real)
(declare-fun Constructed_Argument_t () String)
(assert (not (= ExpandObjSwitcher 0.0)))
(assert (not (= ExpandObjSwitcher 1.0)))
(assert (not (= ExpandObjSwitcher 2.0)))
(assert (= ExpandObjSwitcher 3.0))
(assert (not (= Constructed_Argument_t "string")))
(assert (not (= Constructed_Argument_t "number")))
(assert (not (= Constructed_Argument_t "boolean")))
(assert (= Constructed_Argument_t "object"))
(check-sat)
